problems/csplib-prob030/BalancedAcademicCurriculumProblem-models/compact/O2/minion/model-bacp-15-solution000001.eprime-solution
language ESSENCE' 1.0

letting curr_Function1D be
        [2, 2, 2, 2, 1, 2, 2, 1, 1, 1, 1, 1, 1, 7, 7, 7, 7, 7, 7, 7, 7, 7, 7, 6, 6, 6, 6, 4, 8, 1, 5, 3, 5, 5, 2, 3, 2,
         3, 4, 3, 1, 3, 9, 2, 9, 10, 2, 10, 1, 8;
             int(1..50)]
