problems/csplib-prob030/BalancedAcademicCurriculumProblem-models/noch/O0/minion/model-bacp-15-solution000001.solution
language Essence 1.3

letting curr be
        function(1 --> 2, 2 --> 2, 3 --> 2, 4 --> 2, 5 --> 1, 6 --> 2, 7 --> 2, 8 --> 1, 9 --> 1, 10 --> 1, 11 --> 1,
                 12 --> 1, 13 --> 1, 14 --> 7, 15 --> 7, 16 --> 7, 17 --> 7, 18 --> 7, 19 --> 7, 20 --> 7, 21 --> 7,
                 22 --> 7, 23 --> 7, 24 --> 6, 25 --> 6, 26 --> 6, 27 --> 6, 28 --> 4, 29 --> 8, 30 --> 1, 31 --> 5,
                 32 --> 3, 33 --> 5, 34 --> 5, 35 --> 2, 36 --> 3, 37 --> 2, 38 --> 3, 39 --> 4, 40 --> 3, 41 --> 1,
                 42 --> 3, 43 --> 9, 44 --> 2, 45 --> 9, 46 --> 10, 47 --> 2, 48 --> 10, 49 --> 1, 50 --> 8)
